NAME: instance_3159
TYPE: TSP
DIMENSION: 20
EDGE_WEIGHT_TYPE: EUC_2D
NODE_COORD_SECTION
0 40.90 66.43
1 76.00 34.46
2 61.55 16.21
3 74.42 38.11
4 20.04 60.49
5 82.83 39.35
6 42.19 34.06
7 38.54 68.51
8 49.13 49.76
9 15.46 36.59
10 89.08 77.69
11 75.86 84.14
12 16.04 65.65
13 48.30 33.01
14 20.80 3.48
15 82.81 35.44
16 48.90 24.10
17 88.05 88.93
18 82.48 20.53
19 30.89 21.37
EOF
